words_hard_train/3284.qaiger
aag 96 23 0 1 73
2
4
8
12
20
24
32
36
44
48
56
60
68
72
80
100
104
114
124
134
144
154
164
193
6 2 4
10 6 8
14 11 13
16 7 9
18 15 17
22 19 21
26 23 24
28 18 20
30 27 29
34 31 32
38 35 37
40 30 33
42 39 41
46 43 45
50 47 48
52 42 44
54 51 53
58 55 56
62 59 61
64 54 57
66 63 65
70 66 68
74 71 73
76 67 69
78 75 77
82 79 81
84 78 80
86 83 85
88 77 71
90 59 65
92 47 53
94 35 41
96 29 23
98 17 11
102 4 100
106 102 104
108 99 107
110 103 105
112 109 111
116 112 114
118 97 117
120 113 115
122 119 121
126 122 124
128 95 127
130 123 125
132 129 131
136 132 134
138 93 137
140 133 135
142 139 141
146 143 145
148 90 147
150 142 144
152 149 151
156 152 155
158 88 157
160 153 154
162 159 161
166 163 165
168 86 167
170 162 164
172 169 171
174 145 155
176 174 164
178 125 135
180 105 115
182 178 180
184 182 101
186 176 184
188 173 186
190 172 187
192 189 191
i0 1 x2[0]
i1 2 y2[0]
i2 2 y2[1]
i3 1 x2[1]
i4 2 y2[2]
i5 1 x2[2]
i6 2 y2[3]
i7 1 x2[3]
i8 2 y2[4]
i9 1 x2[4]
i10 2 y2[5]
i11 1 x2[5]
i12 2 y2[6]
i13 1 x2[6]
i14 2 y2[7]
i15 2 y1[0]
i16 2 y1[1]
i17 2 y1[2]
i18 2 y1[3]
i19 2 y1[4]
i20 2 y1[5]
i21 2 y1[6]
i22 2 y1[7]
o0 bv[0]
c
simplified
  <=
    unary minus
      2 y1
    xor
      add
        1 x2
        2 y2
      1 x2
