words_hard_train/3284.qaiger.qdimacs
p cnf 96 220
a 1 36 6 12 18 24 30 0
e 2 3 4 5 7 8 9 10 11 13 14 15 16 17 19 20 21 22 23 25 26 27 28 29 31 32 33 34 35 37 38 39 40 41 42 43 44 45 46 47 48 49 50 51 52 53 54 55 56 57 58 59 60 61 62 63 64 65 66 67 68 69 70 71 72 73 74 75 76 77 78 79 80 81 82 83 84 85 86 87 88 89 90 91 92 93 94 95 96 0
-1 -2 3 0
1 -3 0
2 -3 0
-3 -4 5 0
3 -5 0
4 -5 0
5 6 7 0
-5 -7 0
-6 -7 0
3 4 8 0
-3 -8 0
-4 -8 0
7 8 9 0
-7 -9 0
-8 -9 0
9 10 11 0
-9 -11 0
-10 -11 0
11 -12 13 0
-11 -13 0
12 -13 0
-9 -10 14 0
9 -14 0
10 -14 0
13 14 15 0
-13 -15 0
-14 -15 0
15 -16 17 0
-15 -17 0
16 -17 0
17 18 19 0
-17 -19 0
-18 -19 0
-15 16 20 0
15 -20 0
-16 -20 0
19 20 21 0
-19 -21 0
-20 -21 0
21 22 23 0
-21 -23 0
-22 -23 0
23 -24 25 0
-23 -25 0
24 -25 0
-21 -22 26 0
21 -26 0
22 -26 0
25 26 27 0
-25 -27 0
-26 -27 0
27 -28 29 0
-27 -29 0
28 -29 0
29 30 31 0
-29 -31 0
-30 -31 0
-27 28 32 0
27 -32 0
-28 -32 0
31 32 33 0
-31 -33 0
-32 -33 0
-33 -34 35 0
33 -35 0
34 -35 0
35 36 37 0
-35 -37 0
-36 -37 0
33 34 38 0
-33 -38 0
-34 -38 0
37 38 39 0
-37 -39 0
-38 -39 0
39 40 41 0
-39 -41 0
-40 -41 0
-39 -40 42 0
39 -42 0
40 -42 0
41 42 43 0
-41 -43 0
-42 -43 0
38 35 44 0
-38 -44 0
-35 -44 0
29 32 45 0
-29 -45 0
-32 -45 0
23 26 46 0
-23 -46 0
-26 -46 0
17 20 47 0
-17 -47 0
-20 -47 0
14 11 48 0
-14 -48 0
-11 -48 0
8 5 49 0
-8 -49 0
-5 -49 0
-2 -50 51 0
2 -51 0
50 -51 0
-51 -52 53 0
51 -53 0
52 -53 0
49 53 54 0
-49 -54 0
-53 -54 0
51 52 55 0
-51 -55 0
-52 -55 0
54 55 56 0
-54 -56 0
-55 -56 0
-56 -57 58 0
56 -58 0
57 -58 0
48 58 59 0
-48 -59 0
-58 -59 0
56 57 60 0
-56 -60 0
-57 -60 0
59 60 61 0
-59 -61 0
-60 -61 0
-61 -62 63 0
61 -63 0
62 -63 0
47 63 64 0
-47 -64 0
-63 -64 0
61 62 65 0
-61 -65 0
-62 -65 0
64 65 66 0
-64 -66 0
-65 -66 0
-66 -67 68 0
66 -68 0
67 -68 0
46 68 69 0
-46 -69 0
-68 -69 0
66 67 70 0
-66 -70 0
-67 -70 0
69 70 71 0
-69 -71 0
-70 -71 0
71 72 73 0
-71 -73 0
-72 -73 0
-45 73 74 0
45 -74 0
-73 -74 0
-71 -72 75 0
71 -75 0
72 -75 0
74 75 76 0
-74 -76 0
-75 -76 0
-76 77 78 0
76 -78 0
-77 -78 0
-44 78 79 0
44 -79 0
-78 -79 0
76 -77 80 0
-76 -80 0
77 -80 0
79 80 81 0
-79 -81 0
-80 -81 0
81 82 83 0
-81 -83 0
-82 -83 0
-43 83 84 0
43 -84 0
-83 -84 0
-81 -82 85 0
81 -85 0
82 -85 0
84 85 86 0
-84 -86 0
-85 -86 0
72 77 87 0
-72 -87 0
-77 -87 0
-87 -82 88 0
87 -88 0
82 -88 0
62 67 89 0
-62 -89 0
-67 -89 0
52 57 90 0
-52 -90 0
-57 -90 0
-89 -90 91 0
89 -91 0
90 -91 0
-91 50 92 0
91 -92 0
-50 -92 0
-88 -92 93 0
88 -93 0
92 -93 0
86 -93 94 0
-86 -94 0
93 -94 0
-86 93 95 0
86 -95 0
-93 -95 0
94 95 96 0
-94 -96 0
-95 -96 0
-96 0
